\ Model Routes
\ LP format - for model browsing. Use MPS format to capture full model detail.
Maximize
  1295.445206194839 R{0,0} + 2353.896024458567 R{0,1}
   + 2353.896024458567 R{0,2} - 249.2301939667805 R{0,3}
   - 334.6437508789439 R{0,4} + 336.0139884829289 R{0,5}
   + 3355.762684564776 R{0,6} + 1671.556088243952 R{0,7}
   + 2590.009663405788 R{0,8} + 2732.728106344733 R{0,9}
   + 1916.235848592635 R{0,10} + 1160.143321057496 R{0,11}
   + 1751.881581011084 R{0,12} + 1049.853906189839 R{0,13}
   + 2255.107254793166 R{0,14} + 2458.991750323935 R{0,15}
   + 2459.103926564386 R{0,16} + 2255.107254793166 R{0,17}
   + 1788.64589770135 R{0,18} + 2428.630698539003 R{0,19}
   + 986.7023386153646 R{0,20} + 2484.246404961354 R{0,21}
   + 1559.995144546355 R{0,22} + 1884.425683025307 R{0,23}
   + 2026.863718845984 R{0,24} + 1441.045789064004 R{0,25}
   + 1254.330081613974 R{0,26} + 1531.006352648366 R{0,27}
   + 1237.543553180295 R{0,28} + 1140.43624574362 R{0,29}
   + 1978.850160677833 R{0,30} + 1749.520402706384 R{0,31}
   + 1881.839132993494 R{0,32} + 1158.823124255096 R{0,33}
   + 1916.235848592635 R{0,34} + 1361.303311935617 R{0,35}
   + 2255.107254793166 R{0,36} + 1978.850160677833 R{0,37}
   + 1857.882967727369 R{0,38} + 2255.107254793166 R{0,39}
   + 1549.530262717362 R{0,40} + 2051.258820802663 R{0,41}
   + 1603.737766153252 R{0,42} + 1636.835544001947 R{0,43}
   + 1964.087367307272 R{0,44} + 1477.007764643249 R{0,45}
   + 2087.093602538222 R{0,46} + 1954.455058721155 R{0,47}
   - 256.140831891889 R{1,0} + 165.2076460747254 R{1,1}
   + 1217.268818571461 R{1,2} + 1217.268818571461 R{1,3}
   + 546.5265755034507 R{1,4} + 1648.432509491119 R{1,5}
   + 1381.401378170062 R{1,6} + 1125.096416074871 R{1,7}
   + 1531.448175987283 R{1,8} + 729.6784362525084 R{1,9}
   + 1074.85361471522 R{1,10} + 173.448577884546 R{1,11}
   + 1074.765655608244 R{1,12} + 881.2928682419174 R{1,13}
   + 1109.154386634649 R{1,14} + 972.539282825478 R{1,15}
   + 368.0980357575849 R{1,16} + 827.6897153858554 R{1,17}
   + 354.3764084682978 R{1,18} + 1404.760192229627 R{1,19}
   + 1085.092319634482 R{1,20} + 861.5691953489213 R{1,21}
   + 547.7595685317119 R{1,22} + 873.6597842033982 R{1,23}
   + 1587.482102511375 R{1,24} + 588.0071046780096 R{1,25}
   + 606.3685877003353 R{1,26} + 385.9163116669154 R{1,27}
   + 528.8312041238137 R{1,28} + 1123.410892012212 R{1,29}
   + 668.2561526692396 R{1,30} + 678.7405597220695 R{1,31}
   - 278.4443928850388 R{2,0} + 318.1212024787993 R{2,1}
   + 800.7457754041151 R{2,2} + 846.5776695814457 R{2,3}
   + 861.6348838459182 R{2,4} + 203.377965249281 R{2,5}
   + 947.8421575364903 R{2,6} + 395.796393489625 R{2,7}
   + 151.1516248611816 R{2,8} + 777.8556850360302 R{2,9}
   + 1070.37518955274 R{2,10} + 855.6423581210991 R{2,11}
   + 838.1874104724134 R{2,12} + 212.622736428392 R{2,13}
   + 176.5284551099577 R{2,14} + 1144.529711810373 R{2,15}
   + 594.1507212540391 R{2,16} + 246.7086071865807 R{2,17}
   + 464.0643303132324 R{2,18} + 246.7086071865807 R{2,19}
   + 1001.015819260993 R{2,20} + 594.1507212540391 R{2,21}
   + 1144.529711810373 R{2,22} + 963.2528752942217 R{2,23}
   + 594.1507212540391 R{2,24} + 230.5524818042225 R{2,25}
   + 144.4600408296817 R{2,26} + 144.4600408296817 R{2,27}
   - 260.2482995389823 R{3,0} + 701.3067653295128 R{3,1}
   + 1230.485940651614 R{3,2} + 1390.267712467343 R{3,3}
   + 986.6830110629019 R{3,4} + 620.3343360773799 R{3,5}
   + 1229.478095685618 R{3,6} + 923.8803808081843 R{3,7}
   + 1029.527330670028 R{3,8} + 967.506016383903 R{3,9}
   + 913.9015136029795 R{3,10} + 985.7887239990498 R{3,11}
   + 635.2576867990803 R{3,12} + 887.4579301584213 R{3,13}
   + 834.2212197106539 R{3,14} + 923.8803808081843 R{3,15}
   + 834.2212197106539 R{3,16} + 1008.215943241509 R{3,17}
   + 772.7404849465861 R{3,18} + 219.7951086407725 R{3,19}
   + 842.6107378735694 R{3,20} + 185.3757387384807 R{3,21}
   + 821.2119736798104 R{3,22} + 186.4196316420951 R{3,23}
   + 950.6900155021258 R{3,24} + 851.9566045103068 R{3,25}
   + 490.9000611092966 R{3,26} + 883.5149529757168 R{3,27}
   + 903.8187706017061 R{3,28} + 585.2619033137057 R{3,29}
   + 214.4043536425824 R{3,30} + 581.2126749316451 R{3,31}
   + 316.8822369640106 R{3,32} + 1222.625227657223 R{3,33}
   + 469.1707655541172 R{3,34} + 1124.353822726611 R{3,35}
   + 1301.63091817943 R{3,36} + 193.7515684031611 R{3,37}
   + 525.5528478289082 R{3,38} + 557.657070183462 R{3,39}
   - 242.5208875955131 R{4,0} + 817.7894748373856 R{4,1}
   + 1338.413574514046 R{4,2} + 1386.901587038847 R{4,3}
   + 1386.901587038847 R{4,4} + 1280.693392418149 R{4,5}
   + 918.7711899969829 R{4,6} + 1005.399504172769 R{4,7}
   + 1041.443238306379 R{4,8} + 1444.12126036797 R{4,9}
   + 1184.588607807609 R{4,10} + 555.3568217168997 R{4,11}
   + 327.2981758553451 R{4,12} + 905.0595251285904 R{4,13}
   + 1280.693392418149 R{4,14} + 1188.118966884533 R{4,15}
   + 1100.951904677772 R{4,16} + 1336.790827276105 R{4,17}
   + 493.0138747742949 R{4,18} + 1188.118966884533 R{4,19}
   + 1370.299681565322 R{4,20} + 840.9096387607487 R{4,21}
   + 539.5178282925881 R{4,22} + 858.8827532025125 R{4,23}
   + 1011.403416796977 R{4,24} + 980.2038338059231 R{4,25}
   + 803.9312971924899 R{4,26} + 947.3102918152499 R{4,27}
   + 1045.521652562564 R{4,28} + 747.8769719858331 R{4,29}
   + 1127.543677281656 R{4,30} + 1127.543677281656 R{4,31}
   + 1133.05763167911 R{4,32} + 969.3593831814344 R{4,33}
   + 918.6140363825598 R{4,34} + 1094.617150870496 R{4,35}
   - 231.9775664337766 R{5,0} + 251.2011413408645 R{5,1}
   + 835.6653627301428 R{5,2} + 855.7298140611135 R{5,3}
   + 251.2011413408645 R{5,4} + 1181.983865015 R{5,5}
   + 83.418257037986 R{5,6} + 371.0283692029681 R{5,7}
   + 475.9110207142691 R{5,8} + 508.0973748110391 R{5,9}
   + 899.2270902557668 R{5,10} + 697.4793234697629 R{5,11}
   + 266.9925588274494 R{5,12} + 1279.234956046819 R{5,13}
   + 888.8872950157465 R{5,14} + 271.2655926718351 R{5,15}
   + 860.1896451077814 R{5,16} + 697.4793234697629 R{5,17}
   + 202.2462529876999 R{5,18} + 414.4928896980455 R{5,19}
   + 281.6502712537329 R{5,20} + 569.260383418715 R{5,21}
   + 605.7429540713213 R{5,22} + 569.260383418715 R{5,23}
   + 371.0283692029681 R{5,24} - 231.1436095783099 R{6,0}
   + 717.4021330401677 R{6,1} + 1273.171763877974 R{6,2}
   + 1064.579213515174 R{6,3} + 985.5716685712982 R{6,4}
   + 813.7581239514921 R{6,5} + 1141.310039776543 R{6,6}
   + 1134.470899554831 R{6,7} + 965.7906871928617 R{6,8}
   + 820.7971856862755 R{6,9} + 784.6928360719213 R{6,10}
   + 784.6928360719213 R{6,11} + 979.5497604414606 R{6,12}
   + 1664.035316701245 R{6,13} + 950.8027679737245 R{6,14}
   + 658.845466657601 R{6,15} + 1023.640395554137 R{6,16}
   + 743.7540181108847 R{6,17} + 911.4005285473961 R{6,18}
   + 1098.518036755318 R{6,19} + 422.7668606311523 R{6,20}
   + 1143.111715449459 R{6,21} + 381.3256832688719 R{6,22}
   + 858.2042279140983 R{6,23} + 1154.429849026426 R{6,24}
   + 784.6928360719213 R{6,25} + 565.5996705581553 R{6,26}
   + 475.4575057832283 R{6,27} + 31.71443891409339 R{6,28}
   + 1663.534516258454 R{6,29} + 1154.429849026426 R{6,30}
   + 1016.904832898928 R{6,31} + 708.3337046712506 R{6,32}
   + 975.9660149378913 R{6,33} + 916.1698854191068 R{6,34}
   + 902.3804681362419 R{6,35} + 374.8700655072593 R{6,36}
   + 749.0660179617662 R{6,37} + 692.9887605424917 R{6,38}
   + 1664.035316701245 R{6,39} + 629.9385160866823 R{6,40}
   + 1100.600604613627 R{6,41} + 958.7153134073421 R{6,42}
   + 683.5444720213573 R{6,43} + 792.6143531901661 R{6,44}
   + 629.9385160866823 R{6,45}
Subject To
 R00: R{0,0} <= 1
 R01: R{0,1} <= 1
 R02: R{0,2} <= 1
 R03: R{0,3} <= 1
 R04: R{0,4} <= 1
 R05: R{0,5} <= 1
 R06: R{0,6} <= 1
 R07: R{0,7} <= 1
 R08: R{0,8} <= 1
 R09: R{0,9} <= 1
 R010: R{0,10} <= 1
 R011: R{0,11} <= 1
 R012: R{0,12} <= 1
 R013: R{0,13} <= 1
 R014: R{0,14} <= 1
 R015: R{0,15} <= 1
 R016: R{0,16} <= 1
 R017: R{0,17} <= 1
 R018: R{0,18} <= 1
 R019: R{0,19} <= 1
 R020: R{0,20} <= 1
 R021: R{0,21} <= 1
 R022: R{0,22} <= 1
 R023: R{0,23} <= 1
 R024: R{0,24} <= 1
 R025: R{0,25} <= 1
 R026: R{0,26} <= 1
 R027: R{0,27} <= 1
 R028: R{0,28} <= 1
 R029: R{0,29} <= 1
 R030: R{0,30} <= 1
 R031: R{0,31} <= 1
 R032: R{0,32} <= 1
 R033: R{0,33} <= 1
 R034: R{0,34} <= 1
 R035: R{0,35} <= 1
 R036: R{0,36} <= 1
 R037: R{0,37} <= 1
 R038: R{0,38} <= 1
 R039: R{0,39} <= 1
 R040: R{0,40} <= 1
 R041: R{0,41} <= 1
 R042: R{0,42} <= 1
 R043: R{0,43} <= 1
 R044: R{0,44} <= 1
 R045: R{0,45} <= 1
 R046: R{0,46} <= 1
 R047: R{0,47} <= 1
 R048: R{1,0} <= 1
 R049: R{1,1} <= 1
 R050: R{1,2} <= 1
 R051: R{1,3} <= 1
 R052: R{1,4} <= 1
 R053: R{1,5} <= 1
 R054: R{1,6} <= 1
 R055: R{1,7} <= 1
 R056: R{1,8} <= 1
 R057: R{1,9} <= 1
 R058: R{1,10} <= 1
 R059: R{1,11} <= 1
 R060: R{1,12} <= 1
 R061: R{1,13} <= 1
 R062: R{1,14} <= 1
 R063: R{1,15} <= 1
 R064: R{1,16} <= 1
 R065: R{1,17} <= 1
 R066: R{1,18} <= 1
 R067: R{1,19} <= 1
 R068: R{1,20} <= 1
 R069: R{1,21} <= 1
 R070: R{1,22} <= 1
 R071: R{1,23} <= 1
 R072: R{1,24} <= 1
 R073: R{1,25} <= 1
 R074: R{1,26} <= 1
 R075: R{1,27} <= 1
 R076: R{1,28} <= 1
 R077: R{1,29} <= 1
 R078: R{1,30} <= 1
 R079: R{1,31} <= 1
 R080: R{2,0} <= 1
 R081: R{2,1} <= 1
 R082: R{2,2} <= 1
 R083: R{2,3} <= 1
 R084: R{2,4} <= 1
 R085: R{2,5} <= 1
 R086: R{2,6} <= 1
 R087: R{2,7} <= 1
 R088: R{2,8} <= 1
 R089: R{2,9} <= 1
 R090: R{2,10} <= 1
 R091: R{2,11} <= 1
 R092: R{2,12} <= 1
 R093: R{2,13} <= 1
 R094: R{2,14} <= 1
 R095: R{2,15} <= 1
 R096: R{2,16} <= 1
 R097: R{2,17} <= 1
 R098: R{2,18} <= 1
 R099: R{2,19} <= 1
 R0100: R{2,20} <= 1
 R0101: R{2,21} <= 1
 R0102: R{2,22} <= 1
 R0103: R{2,23} <= 1
 R0104: R{2,24} <= 1
 R0105: R{2,25} <= 1
 R0106: R{2,26} <= 1
 R0107: R{2,27} <= 1
 R0108: R{3,0} <= 1
 R0109: R{3,1} <= 1
 R0110: R{3,2} <= 1
 R0111: R{3,3} <= 1
 R0112: R{3,4} <= 1
 R0113: R{3,5} <= 1
 R0114: R{3,6} <= 1
 R0115: R{3,7} <= 1
 R0116: R{3,8} <= 1
 R0117: R{3,9} <= 1
 R0118: R{3,10} <= 1
 R0119: R{3,11} <= 1
 R0120: R{3,12} <= 1
 R0121: R{3,13} <= 1
 R0122: R{3,14} <= 1
 R0123: R{3,15} <= 1
 R0124: R{3,16} <= 1
 R0125: R{3,17} <= 1
 R0126: R{3,18} <= 1
 R0127: R{3,19} <= 1
 R0128: R{3,20} <= 1
 R0129: R{3,21} <= 1
 R0130: R{3,22} <= 1
 R0131: R{3,23} <= 1
 R0132: R{3,24} <= 1
 R0133: R{3,25} <= 1
 R0134: R{3,26} <= 1
 R0135: R{3,27} <= 1
 R0136: R{3,28} <= 1
 R0137: R{3,29} <= 1
 R0138: R{3,30} <= 1
 R0139: R{3,31} <= 1
 R0140: R{3,32} <= 1
 R0141: R{3,33} <= 1
 R0142: R{3,34} <= 1
 R0143: R{3,35} <= 1
 R0144: R{3,36} <= 1
 R0145: R{3,37} <= 1
 R0146: R{3,38} <= 1
 R0147: R{3,39} <= 1
 R0148: R{4,0} <= 1
 R0149: R{4,1} <= 1
 R0150: R{4,2} <= 1
 R0151: R{4,3} <= 1
 R0152: R{4,4} <= 1
 R0153: R{4,5} <= 1
 R0154: R{4,6} <= 1
 R0155: R{4,7} <= 1
 R0156: R{4,8} <= 1
 R0157: R{4,9} <= 1
 R0158: R{4,10} <= 1
 R0159: R{4,11} <= 1
 R0160: R{4,12} <= 1
 R0161: R{4,13} <= 1
 R0162: R{4,14} <= 1
 R0163: R{4,15} <= 1
 R0164: R{4,16} <= 1
 R0165: R{4,17} <= 1
 R0166: R{4,18} <= 1
 R0167: R{4,19} <= 1
 R0168: R{4,20} <= 1
 R0169: R{4,21} <= 1
 R0170: R{4,22} <= 1
 R0171: R{4,23} <= 1
 R0172: R{4,24} <= 1
 R0173: R{4,25} <= 1
 R0174: R{4,26} <= 1
 R0175: R{4,27} <= 1
 R0176: R{4,28} <= 1
 R0177: R{4,29} <= 1
 R0178: R{4,30} <= 1
 R0179: R{4,31} <= 1
 R0180: R{4,32} <= 1
 R0181: R{4,33} <= 1
 R0182: R{4,34} <= 1
 R0183: R{4,35} <= 1
 R0184: R{5,0} <= 1
 R0185: R{5,1} <= 1
 R0186: R{5,2} <= 1
 R0187: R{5,3} <= 1
 R0188: R{5,4} <= 1
 R0189: R{5,5} <= 1
 R0190: R{5,6} <= 1
 R0191: R{5,7} <= 1
 R0192: R{5,8} <= 1
 R0193: R{5,9} <= 1
 R0194: R{5,10} <= 1
 R0195: R{5,11} <= 1
 R0196: R{5,12} <= 1
 R0197: R{5,13} <= 1
 R0198: R{5,14} <= 1
 R0199: R{5,15} <= 1
 R0200: R{5,16} <= 1
 R0201: R{5,17} <= 1
 R0202: R{5,18} <= 1
 R0203: R{5,19} <= 1
 R0204: R{5,20} <= 1
 R0205: R{5,21} <= 1
 R0206: R{5,22} <= 1
 R0207: R{5,23} <= 1
 R0208: R{5,24} <= 1
 R0209: R{6,0} <= 1
 R0210: R{6,1} <= 1
 R0211: R{6,2} <= 1
 R0212: R{6,3} <= 1
 R0213: R{6,4} <= 1
 R0214: R{6,5} <= 1
 R0215: R{6,6} <= 1
 R0216: R{6,7} <= 1
 R0217: R{6,8} <= 1
 R0218: R{6,9} <= 1
 R0219: R{6,10} <= 1
 R0220: R{6,11} <= 1
 R0221: R{6,12} <= 1
 R0222: R{6,13} <= 1
 R0223: R{6,14} <= 1
 R0224: R{6,15} <= 1
 R0225: R{6,16} <= 1
 R0226: R{6,17} <= 1
 R0227: R{6,18} <= 1
 R0228: R{6,19} <= 1
 R0229: R{6,20} <= 1
 R0230: R{6,21} <= 1
 R0231: R{6,22} <= 1
 R0232: R{6,23} <= 1
 R0233: R{6,24} <= 1
 R0234: R{6,25} <= 1
 R0235: R{6,26} <= 1
 R0236: R{6,27} <= 1
 R0237: R{6,28} <= 1
 R0238: R{6,29} <= 1
 R0239: R{6,30} <= 1
 R0240: R{6,31} <= 1
 R0241: R{6,32} <= 1
 R0242: R{6,33} <= 1
 R0243: R{6,34} <= 1
 R0244: R{6,35} <= 1
 R0245: R{6,36} <= 1
 R0246: R{6,37} <= 1
 R0247: R{6,38} <= 1
 R0248: R{6,39} <= 1
 R0249: R{6,40} <= 1
 R0250: R{6,41} <= 1
 R0251: R{6,42} <= 1
 R0252: R{6,43} <= 1
 R0253: R{6,44} <= 1
 R0254: R{6,45} <= 1
 R1_0: R{0,0} + R{0,1} + R{0,2} + R{0,3} + R{0,4} + R{0,5} + R{0,6}
   + R{0,7} + R{0,8} + R{0,9} + R{0,10} + R{0,11} + R{0,12} + R{0,13}
   + R{0,14} + R{0,15} + R{0,16} + R{0,17} + R{0,18} + R{0,19} + R{0,20}
   + R{0,21} + R{0,22} + R{0,23} + R{0,24} + R{0,25} + R{0,26} + R{0,27}
   + R{0,28} + R{0,29} + R{0,30} + R{0,31} + R{0,32} + R{0,33} + R{0,34}
   + R{0,35} + R{0,36} + R{0,37} + R{0,38} + R{0,39} + R{0,40} + R{0,41}
   + R{0,42} + R{0,43} + R{0,44} + R{0,45} + R{0,46} + R{0,47} <= 1
 R1_1: R{1,0} + R{1,1} + R{1,2} + R{1,3} + R{1,4} + R{1,5} + R{1,6}
   + R{1,7} + R{1,8} + R{1,9} + R{1,10} + R{1,11} + R{1,12} + R{1,13}
   + R{1,14} + R{1,15} + R{1,16} + R{1,17} + R{1,18} + R{1,19} + R{1,20}
   + R{1,21} + R{1,22} + R{1,23} + R{1,24} + R{1,25} + R{1,26} + R{1,27}
   + R{1,28} + R{1,29} + R{1,30} + R{1,31} <= 1
 R1_2: R{2,0} + R{2,1} + R{2,2} + R{2,3} + R{2,4} + R{2,5} + R{2,6}
   + R{2,7} + R{2,8} + R{2,9} + R{2,10} + R{2,11} + R{2,12} + R{2,13}
   + R{2,14} + R{2,15} + R{2,16} + R{2,17} + R{2,18} + R{2,19} + R{2,20}
   + R{2,21} + R{2,22} + R{2,23} + R{2,24} + R{2,25} + R{2,26} + R{2,27}
   <= 1
 R1_3: R{3,0} + R{3,1} + R{3,2} + R{3,3} + R{3,4} + R{3,5} + R{3,6}
   + R{3,7} + R{3,8} + R{3,9} + R{3,10} + R{3,11} + R{3,12} + R{3,13}
   + R{3,14} + R{3,15} + R{3,16} + R{3,17} + R{3,18} + R{3,19} + R{3,20}
   + R{3,21} + R{3,22} + R{3,23} + R{3,24} + R{3,25} + R{3,26} + R{3,27}
   + R{3,28} + R{3,29} + R{3,30} + R{3,31} + R{3,32} + R{3,33} + R{3,34}
   + R{3,35} + R{3,36} + R{3,37} + R{3,38} + R{3,39} <= 1
 R1_4: R{4,0} + R{4,1} + R{4,2} + R{4,3} + R{4,4} + R{4,5} + R{4,6}
   + R{4,7} + R{4,8} + R{4,9} + R{4,10} + R{4,11} + R{4,12} + R{4,13}
   + R{4,14} + R{4,15} + R{4,16} + R{4,17} + R{4,18} + R{4,19} + R{4,20}
   + R{4,21} + R{4,22} + R{4,23} + R{4,24} + R{4,25} + R{4,26} + R{4,27}
   + R{4,28} + R{4,29} + R{4,30} + R{4,31} + R{4,32} + R{4,33} + R{4,34}
   + R{4,35} <= 1
 R1_5: R{5,0} + R{5,1} + R{5,2} + R{5,3} + R{5,4} + R{5,5} + R{5,6}
   + R{5,7} + R{5,8} + R{5,9} + R{5,10} + R{5,11} + R{5,12} + R{5,13}
   + R{5,14} + R{5,15} + R{5,16} + R{5,17} + R{5,18} + R{5,19} + R{5,20}
   + R{5,21} + R{5,22} + R{5,23} + R{5,24} <= 1
 R1_6: R{6,0} + R{6,1} + R{6,2} + R{6,3} + R{6,4} + R{6,5} + R{6,6}
   + R{6,7} + R{6,8} + R{6,9} + R{6,10} + R{6,11} + R{6,12} + R{6,13}
   + R{6,14} + R{6,15} + R{6,16} + R{6,17} + R{6,18} + R{6,19} + R{6,20}
   + R{6,21} + R{6,22} + R{6,23} + R{6,24} + R{6,25} + R{6,26} + R{6,27}
   + R{6,28} + R{6,29} + R{6,30} + R{6,31} + R{6,32} + R{6,33} + R{6,34}
   + R{6,35} + R{6,36} + R{6,37} + R{6,38} + R{6,39} + R{6,40} + R{6,41}
   + R{6,42} + R{6,43} + R{6,44} + R{6,45} <= 1
 R2_0: 7 R{0,0} + 7 R{0,1} + 7 R{0,2} + 7 R{0,6} + 7 R{0,7} + 7 R{0,8}
   + 7 R{0,9} + 7 R{0,10} + 7 R{0,12} + 7 R{0,13} + 7 R{0,14} + 7 R{0,15}
   + 7 R{0,16} + 7 R{0,17} + 7 R{0,18} + 7 R{0,19} + 7 R{0,21} + 7 R{0,22}
   + 7 R{0,23} + 7 R{0,24} + 7 R{0,25} + 7 R{0,26} + 7 R{0,27} + 7 R{0,28}
   + 7 R{0,30} + 7 R{0,31} + 7 R{0,32} + 7 R{0,33} + 7 R{0,34} + 7 R{0,35}
   + 7 R{0,36} + 7 R{0,37} + 7 R{0,38} + 7 R{0,39} + 7 R{0,40} + 7 R{0,41}
   + 7 R{0,42} + 7 R{0,43} + 7 R{0,44} + 7 R{0,45} + 7 R{0,47} + 7 R{6,37}
   + 7 R{6,43} <= 7
 R2_1: 10 R{0,6} + 10 R{0,16} + 10 R{0,46} + 10 R{1,6} + 10 R{1,14}
   + 10 R{1,15} + 10 R{1,17} + 10 R{1,19} + 10 R{1,20} + 10 R{1,30}
   + 10 R{1,31} + 10 R{2,4} + 4 R{2,5} + 10 R{2,9} + 10 R{2,12} + 8 R{2,14}
   + 10 R{2,15} + 10 R{2,18} + 10 R{2,20} + 10 R{2,22} + 10 R{2,23}
   + 10 R{2,25} + 10 R{3,1} + 10 R{3,2} + 10 R{3,3} + 10 R{3,4} + 10 R{3,6}
   + 10 R{3,7} + 10 R{3,8} + 10 R{3,9} + 10 R{3,11} + 10 R{3,12}
   + 10 R{3,15} + 10 R{3,23} + 10 R{3,24} + 10 R{3,27} + 10 R{3,30}
   + 10 R{3,31} + 10 R{3,36} + 10 R{3,38} <= 10
 R2_2: <= 0
 R2_3: 4 R{2,1} + 4 R{2,2} + 4 R{2,3} + 4 R{2,4} + 4 R{2,9} + 4 R{2,12}
   + 4 R{2,17} + 4 R{2,19} + 4 R{2,20} <= 4
 R2_4: <= 0
 R2_5: 5 R{0,4} + 5 R{0,5} <= 5
 R2_6: 10 R{1,1} + 10 R{1,2} + 10 R{1,3} + 10 R{1,4} + 10 R{1,5}
   + 10 R{1,6} + 10 R{1,7} + 10 R{1,8} + 10 R{1,9} + 10 R{1,10}
   + 10 R{1,11} + 10 R{1,12} + 10 R{1,13} + 10 R{1,14} + 10 R{1,15}
   + 10 R{1,16} + 10 R{1,19} + 10 R{1,20} + 10 R{1,22} + 10 R{1,23}
   + 10 R{1,25} + 10 R{1,28} + 10 R{1,29} + 10 R{1,31} + 10 R{2,10}
   + 10 R{2,11} + 10 R{3,14} + 10 R{3,16} + 10 R{3,17} + 10 R{3,19}
   + 10 R{3,21} + 10 R{3,28} + 10 R{3,35} + 10 R{3,39} + 10 R{5,10}
   + 10 R{5,11} + 10 R{5,14} + 10 R{5,17} <= 10
 R2_7: 6 R{1,1} + 6 R{1,2} + 6 R{1,3} + 6 R{1,4} + 6 R{1,10} + 6 R{1,11}
   + 6 R{1,13} + 6 R{1,16} + 6 R{1,28} <= 6
 R2_8: <= 0
 R2_9: 12 R{4,1} + 12 R{4,2} + 12 R{4,3} + 12 R{4,4} + 12 R{4,5}
   + 12 R{4,6} + 12 R{4,7} + 11 R{4,8} + 12 R{4,9} + 12 R{4,11}
   + 12 R{4,12} + 12 R{4,13} + 12 R{4,14} + 12 R{4,15} + 12 R{4,16}
   + 12 R{4,17} + 12 R{4,18} + 12 R{4,19} + 12 R{4,20} + 12 R{4,22}
   + 12 R{4,24} + 12 R{4,25} + 12 R{4,26} + 12 R{4,27} + 12 R{4,28}
   + 12 R{4,29} + 12 R{4,30} + 12 R{4,31} + 12 R{4,32} + 12 R{4,33}
   + 12 R{4,35} <= 12
 R2_10: 8 R{6,1} + 8 R{6,2} + 8 R{6,4} + 8 R{6,5} + 8 R{6,9} + 8 R{6,20}
   <= 8
 R2_11: <= 0
 R2_12: <= 0
 R2_13: <= 0
 R2_14: <= 0
 R2_15: 11 R{0,0} + 11 R{0,1} + 11 R{0,2} + 11 R{0,32} + 11 R{4,1}
   + 11 R{4,2} + 11 R{4,3} + 11 R{4,4} + 11 R{4,6} + 11 R{4,16} <= 11
 R2_16: <= 0
 R2_17: 11 R{0,43} + 11 R{4,32} + 11 R{6,15} + 11 R{6,18} + 11 R{6,27}
   <= 11
 R2_18: 5 R{0,43} + 5 R{0,45} + 5 R{3,32} + 5 R{4,26} + 5 R{4,28} <= 5
 R2_19: 11 R{0,8} + 11 R{0,10} + 11 R{0,12} + 11 R{0,22} + 11 R{0,34}
   + 11 R{0,43} + 11 R{2,5} + 11 R{2,8} + 11 R{3,6} + 11 R{4,1} + 11 R{4,2}
   + 11 R{4,3} + 11 R{4,4} + 11 R{4,5} + 11 R{4,6} + 11 R{4,7} + 11 R{4,9}
   + 11 R{4,10} + 11 R{4,14} + 11 R{4,16} + 11 R{4,28} + 11 R{4,30}
   + 11 R{4,31} + 11 R{4,32} + 11 R{5,5} + 11 R{5,9} <= 11
 R2_20: 13 R{0,6} + 13 R{0,9} + 13 R{0,14} + 13 R{0,15} + 13 R{0,16}
   + 13 R{0,17} + 13 R{0,18} + 13 R{0,19} + 13 R{0,24} + 13 R{0,30}
   + 13 R{0,31} + 13 R{0,36} + 13 R{0,37} + 13 R{0,38} + 13 R{0,39}
   + 13 R{0,40} + 13 R{0,41} + 13 R{0,46} + 13 R{0,47} + 5 R{1,5}
   + 13 R{1,12} + 13 R{1,23} + 13 R{1,24} + 13 R{1,26} + 13 R{2,6}
   + 13 R{2,16} + 13 R{2,21} + 13 R{2,24} + 13 R{3,20} + 13 R{3,22}
   + 10 R{3,24} + 13 R{3,25} + 13 R{3,27} + 13 R{3,29} + 13 R{5,13}
   + 13 R{5,19} + 13 R{5,22} + 13 R{6,3} + 13 R{6,6} + 13 R{6,16}
   + 13 R{6,24} + 13 R{6,30} <= 13
 R2_21: <= 0
 R2_22: 10 R{0,6} + 10 R{0,16} + 10 R{0,46} + 10 R{4,17} + 10 R{4,25}
   <= 10
 R2_23: 14 R{0,29} + 14 R{2,13} + 14 R{4,5} + 14 R{4,9} + 14 R{4,11}
   + 14 R{4,13} + 14 R{4,14} + 14 R{4,17} + 14 R{4,22} + 14 R{4,24}
   + 14 R{4,25} + 14 R{4,26} + 14 R{4,27} + 14 R{4,28} + 14 R{4,29}
   + 14 R{4,30} + 14 R{4,31} + 14 R{4,32} + 14 R{4,33} + 14 R{4,34}
   + 14 R{4,35} + 14 R{5,18} <= 14
 R2_24: 10 R{0,9} + 10 R{0,14} + 10 R{0,15} + 10 R{0,17} + 2 R{0,18}
   + 8 R{0,19} + 10 R{0,30} + 10 R{0,36} + 10 R{0,37} + 10 R{0,38}
   + 10 R{0,39} + 10 R{0,41} + 10 R{0,42} + 10 R{1,17} + 10 R{1,22}
   + 8 R{1,24} + 10 R{1,27} + 10 R{1,30} + 8 R{2,20} + 10 R{2,23}
   + 10 R{3,1} + 10 R{3,2} + 10 R{3,3} + 10 R{3,4} + 10 R{3,5} + 10 R{3,7}
   + 10 R{3,9} + 10 R{3,12} + 10 R{3,14} + 10 R{3,15} + 10 R{3,16}
   + 10 R{3,18} + 10 R{3,20} + 10 R{3,25} + 10 R{3,31} + 10 R{3,32}
   + 10 R{3,34} + 10 R{3,35} + 10 R{3,37} + 10 R{4,8} + 10 R{4,11}
   + 10 R{4,12} + 10 R{4,33} + 10 R{6,26} <= 10
 R2_25: <= 13
 R2_26: 6 R{1,24} + 6 R{1,29} + 6 R{2,25} + 6 R{3,19} + 6 R{5,1} + 6 R{5,2}
   + 6 R{5,3} + 6 R{5,4} + 6 R{5,5} + 6 R{5,6} + 6 R{5,7} + 6 R{5,9}
   + 6 R{5,12} + 6 R{5,13} + 6 R{5,14} + 6 R{5,15} + 6 R{5,16} + 6 R{5,20}
   + 6 R{5,21} + 6 R{5,22} + 6 R{5,23} + 6 R{5,24} <= 6
 R2_27: 5 R{0,6} + 5 R{0,16} + 5 R{0,24} + 5 R{0,28} + 5 R{0,31}
   + 5 R{0,40} + 5 R{0,44} + 5 R{0,46} + 5 R{0,47} + 5 R{1,5} + 5 R{1,7}
   + 5 R{1,8} + 5 R{1,14} + 5 R{1,15} + 5 R{1,18} + 5 R{1,20} + 5 R{1,21}
   + 5 R{1,23} + 5 R{1,25} + 5 R{1,26} + 5 R{1,28} + 5 R{1,30} + 5 R{1,31}
   + 5 R{2,15} + 5 R{2,16} + 5 R{2,17} + 5 R{2,18} + 5 R{2,19} + 5 R{2,21}
   + 5 R{2,22} + 5 R{2,24} + 5 R{2,26} + 5 R{2,27} + 5 R{3,3} + 5 R{3,7}
   + 5 R{3,9} + 5 R{3,12} + 5 R{3,14} + 5 R{3,15} + 5 R{3,16} + 5 R{3,18}
   + 5 R{3,20} + 5 R{3,22} + 5 R{3,24} + 5 R{3,25} + 5 R{3,26} + 5 R{3,27}
   + 5 R{3,29} + 5 R{3,33} + 5 R{3,36} + 5 R{3,39} + 5 R{4,35} + 5 R{5,7}
   + 5 R{5,21} + 5 R{5,23} + 5 R{5,24} + 5 R{6,1} + 5 R{6,2} + 5 R{6,3}
   + 5 R{6,4} + 5 R{6,5} + 5 R{6,6} + 5 R{6,7} + 5 R{6,8} + 5 R{6,9}
   + 5 R{6,10} + 5 R{6,11} + 5 R{6,12} + 5 R{6,13} + 5 R{6,14} + 5 R{6,15}
   + 5 R{6,16} + 5 R{6,17} + 5 R{6,18} + 5 R{6,19} + 5 R{6,21} + 5 R{6,24}
   + 5 R{6,25} + 5 R{6,26} + 5 R{6,27} + 5 R{6,29} + 5 R{6,30} + 5 R{6,31}
   + 5 R{6,32} + 5 R{6,33} + 5 R{6,34} + 5 R{6,35} + 5 R{6,37} + 5 R{6,38}
   + 5 R{6,39} + 5 R{6,40} + 5 R{6,41} + 5 R{6,42} + 5 R{6,44} + 5 R{6,45}
   <= 5
 R2_28: <= 0
 R2_29: <= 0
 R2_30: <= 0
 R2_31: <= 0
 R2_32: 7 R{2,14} + 7 R{5,1} + 7 R{5,2} + 7 R{5,3} + 7 R{5,4} + 7 R{5,5}
   + 7 R{5,9} + 7 R{5,10} + 7 R{5,12} + 7 R{5,13} + 7 R{5,15} + 7 R{5,16}
   + 7 R{5,19} + 7 R{5,20} + 7 R{5,21} + 7 R{5,22} + 7 R{5,23} <= 7
 R2_33: 12 R{0,31} + 12 R{1,17} + 12 R{1,18} + 12 R{1,27} + 12 R{3,5}
   + 12 R{3,10} + 12 R{3,13} + 12 R{3,18} + 12 R{3,22} + 12 R{3,26}
   + 12 R{3,28} + 12 R{3,32} + 12 R{3,33} + 12 R{3,34} + 12 R{3,37}
   + 12 R{3,38} + 12 R{4,12} + 12 R{4,18} + 12 R{6,16} + 12 R{6,17}
   + 12 R{6,33} + 12 R{6,41} <= 12
 R2_34: 5 R{0,0} + 5 R{0,1} + 5 R{0,2} + 5 R{0,6} + 5 R{0,7} + 5 R{0,8}
   + 5 R{0,9} + 5 R{0,10} + 5 R{0,11} + 5 R{0,12} + 5 R{0,13} + 5 R{0,14}
   + 5 R{0,15} + 5 R{0,16} + 5 R{0,17} + 5 R{0,18} + 5 R{0,19} + 5 R{0,21}
   + 5 R{0,22} + 5 R{0,24} + 5 R{0,25} + 5 R{0,26} + 5 R{0,27} + 5 R{0,28}
   + 5 R{0,29} + 5 R{0,30} + 5 R{0,31} + 5 R{0,32} + 5 R{0,33} + 5 R{0,34}
   + 5 R{0,35} + 5 R{0,36} + 5 R{0,37} + 5 R{0,38} + 5 R{0,39} + 5 R{0,40}
   + 5 R{0,41} + 5 R{0,43} + 5 R{0,44} + 5 R{0,45} + 5 R{0,46} + 5 R{0,47}
   + 5 R{1,10} + 5 R{1,29} + 5 R{6,18} + 5 R{6,35} <= 5
 R2_35: <= 0
 R2_36: 15 R{1,1} + 15 R{1,2} + 15 R{1,3} + 15 R{1,4} + 15 R{1,5}
   + 15 R{1,10} + 15 R{1,11} + 15 R{1,13} + 15 R{1,14} + 15 R{1,16}
   + 15 R{1,22} + 15 R{1,28} <= 16
 R2_37: 5 R{3,1} + 5 R{3,2} + 5 R{3,5} + 5 R{3,7} + 5 R{3,9} + 5 R{3,10}
   + 5 R{3,11} + 5 R{3,13} + 5 R{3,14} + 5 R{3,15} + 5 R{3,16} + 5 R{3,18}
   + 5 R{3,21} + 5 R{3,24} + 5 R{3,26} + 5 R{3,31} + 5 R{3,33} + 5 R{3,34}
   + 5 R{3,36} + 5 R{3,38} + 5 R{3,39} <= 5
 R2_38: <= 0
 R2_39: 15 R{0,0} + 15 R{0,1} + 15 R{0,2} + 15 R{0,6} + 15 R{0,7}
   + 15 R{0,8} + 15 R{0,9} + 15 R{0,10} + 15 R{0,12} + 15 R{0,34} <= 17
 R2_40: 15 R{2,1} <= 15
 R2_41: 5 R{0,0} + 5 R{0,1} + 5 R{0,2} + 5 R{0,7} + 5 R{0,8} + 5 R{0,9}
   + 5 R{0,10} + 5 R{0,12} + 5 R{0,14} + 5 R{0,17} + 5 R{0,21} + 5 R{0,22}
   + 5 R{0,24} + 5 R{0,26} + 5 R{0,27} + 5 R{0,29} + 5 R{0,32} + 5 R{0,33}
   + 5 R{0,34} + 5 R{0,35} + 5 R{0,36} + 5 R{0,38} + 5 R{0,39} + 5 R{0,41}
   + 5 R{0,43} + 5 R{0,44} + 5 R{0,45} + 5 R{1,2} + 5 R{1,3} + 5 R{1,4}
   + 5 R{1,6} + 5 R{1,8} + 5 R{1,19} + 5 R{1,20} + 5 R{4,16} + 5 R{4,20}
   + 5 R{4,27} + 5 R{6,4} + 5 R{6,8} + 5 R{6,14} + 5 R{6,24} + 5 R{6,30}
   + 5 R{6,32} + 5 R{6,38} <= 5
 R2_42: 4 R{2,1} + 4 R{2,2} + 4 R{2,3} + 4 R{2,4} + 4 R{2,6} + 4 R{2,8}
   + 4 R{2,10} + 4 R{2,12} + 4 R{2,17} + 4 R{2,18} + 4 R{2,19} <= 4
 R2_43: <= 0
 R2_44: <= 0
 R2_45: <= 0
 R2_46: 9 R{0,14} + 9 R{0,15} + 9 R{0,16} + 9 R{0,17} + 9 R{0,18}
   + 9 R{0,19} + 9 R{0,21} + 9 R{0,23} + 9 R{0,24} + 9 R{0,25} + 9 R{0,26}
   + 9 R{0,27} + 9 R{0,28} + 9 R{0,30} + 9 R{0,31} + 9 R{0,32} + 9 R{0,33}
   + 9 R{0,35} + 9 R{0,36} + 9 R{0,37} + 9 R{0,38} + 9 R{0,39} + 9 R{0,40}
   + 9 R{0,41} + 9 R{0,42} + 9 R{0,44} + 9 R{0,45} + 9 R{0,46} + 9 R{0,47}
   <= 9
 R2_47: 7 R{0,0} + 7 R{0,1} + 7 R{0,2} + 7 R{0,21} + 7 R{0,32} + 7 R{0,44}
   + 7 R{5,1} + 7 R{5,2} + 7 R{5,3} + 7 R{5,4} + 7 R{5,6} + 7 R{5,7}
   + 7 R{5,8} + 7 R{5,12} + 7 R{5,15} + 7 R{5,16} + 7 R{5,20} + 7 R{5,21}
   + 7 R{5,23} + 7 R{5,24} <= 7
 R2_48: 4 R{4,1} + 4 R{4,2} + 4 R{4,3} + 4 R{4,4} + 4 R{4,5} + 4 R{4,6}
   + 4 R{4,7} + 4 R{4,8} + 4 R{4,9} + 4 R{4,10} + 4 R{4,13} + 4 R{4,14}
   + 4 R{4,15} + 4 R{4,16} + 4 R{4,17} + 4 R{4,19} + 4 R{4,20} + 4 R{4,24}
   + 4 R{4,26} + 4 R{4,28} + 4 R{4,29} + 4 R{4,30} + 4 R{4,31} + 4 R{4,33}
   + 4 R{4,34} + 4 R{4,35} <= 4
 R2_49: <= 0
 R2_50: <= 0
 R2_51: 11 R{0,27} + 11 R{0,28} + 11 R{1,16} + 11 R{1,22} + 11 R{1,27}
   + 11 R{3,31} + 11 R{3,38} + 11 R{6,43} <= 11
 R2_52: 10 R{4,18} + 10 R{4,21} + 10 R{4,23} <= 10
 R2_53: 13 R{4,1} + 13 R{4,2} + 13 R{4,3} + 13 R{4,4} + 13 R{4,5}
   + 13 R{4,8} + 13 R{4,10} + 13 R{4,11} + 13 R{4,12} + 13 R{4,13}
   + 13 R{4,14} + 13 R{4,16} + 13 R{4,20} + 13 R{4,26} + 13 R{4,27}
   + 13 R{4,28} + 13 R{4,30} + 13 R{4,31} + 13 R{4,32} + 13 R{4,35} <= 13
 R2_54: 9 R{0,23} + 9 R{3,1} + 9 R{3,2} + 9 R{3,5} + 9 R{3,6} + 9 R{3,7}
   + 9 R{3,8} + 9 R{3,9} + 9 R{3,10} + 9 R{3,11} + 9 R{3,13} + 9 R{3,15}
   + 9 R{3,17} + 9 R{3,34} + 9 R{4,24} <= 9
 R2_55: 8 R{6,1} + 8 R{6,2} + 8 R{6,3} + 8 R{6,4} + 8 R{6,5} + 8 R{6,6}
   + 8 R{6,8} + 8 R{6,9} + 8 R{6,10} + 8 R{6,11} + 8 R{6,12} + 8 R{6,13}
   + 8 R{6,14} + 8 R{6,19} + 8 R{6,20} + 8 R{6,21} + 8 R{6,23} + 8 R{6,24}
   + 8 R{6,25} + 8 R{6,26} + 8 R{6,27} + 8 R{6,29} + 8 R{6,30} + 8 R{6,31}
   + 8 R{6,35} + 8 R{6,38} + 8 R{6,39} + 8 R{6,40} + 8 R{6,42} + 8 R{6,43}
   + 8 R{6,44} + 8 R{6,45} <= 8
 R2_56: 6 R{0,1} + 6 R{0,2} + 6 R{0,6} + 6 R{0,8} + 6 R{0,9} + 6 R{0,10}
   + 6 R{0,12} + 6 R{0,14} + 6 R{0,15} + 6 R{0,16} + 6 R{0,17} + 6 R{0,18}
   + 6 R{0,19} + 6 R{0,20} + 6 R{0,21} + 6 R{0,23} + 6 R{0,25} + 6 R{0,30}
   + 6 R{0,32} + 6 R{0,34} + 6 R{0,36} + 6 R{0,37} + 6 R{0,39} + 6 R{0,44}
   + 6 R{0,47} + 6 R{1,14} + 6 R{1,17} + 6 R{4,7} + 6 R{4,9} + 6 R{4,17}
   + 6 R{6,6} + 6 R{6,9} + 6 R{6,12} + 6 R{6,20} + 6 R{6,22} + 6 R{6,23}
   <= 6
 R2_57: <= 0
 R2_58: <= 0
 R2_59: 10 R{0,11} + 10 R{0,23} + 10 R{0,42} + 10 R{1,5} + 10 R{1,12}
   + 10 R{1,24} + 10 R{4,6} + 10 R{4,15} + 10 R{4,18} + 10 R{4,19}
   + 10 R{4,21} + 10 R{4,22} + 10 R{4,23} + 10 R{4,24} + 10 R{4,29}
   + 10 R{4,33} + 10 R{4,34} + 10 R{6,12} + 10 R{6,15} + 10 R{6,18}
   + 10 R{6,21} + 10 R{6,22} + 10 R{6,28} + 10 R{6,34} + 10 R{6,36}
   + 10 R{6,40} + 10 R{6,42} + 10 R{6,44} + 10 R{6,45} <= 10
 R2_60: <= 0
 R2_61: 9 R{0,26} + 9 R{0,29} + 9 R{0,46} + 9 R{4,10} + 9 R{4,21}
   + 9 R{4,23} + 9 R{4,25} + 9 R{4,34} + 9 R{6,31} + 9 R{6,33} + 9 R{6,34}
   + 9 R{6,36} <= 9
 R2_62: <= 0
 R2_63: <= 0
 R2_64: <= 0
 R2_65: 2 R{0,6} + 5 R{6,1} + 5 R{6,2} + 5 R{6,3} + 5 R{6,5} + 5 R{6,7}
   + 5 R{6,10} + 5 R{6,11} + 5 R{6,13} + 5 R{6,16} + 5 R{6,17} + 5 R{6,21}
   + 5 R{6,23} + 5 R{6,25} + 5 R{6,29} + 5 R{6,31} + 5 R{6,33} + 5 R{6,35}
   + 5 R{6,39} + 5 R{6,42} <= 5
 R2_66: 7 R{1,25} + 7 R{2,11} + 7 R{3,23} + 7 R{6,1} + 7 R{6,4} + 7 R{6,5}
   + 7 R{6,8} + 7 R{6,10} + 7 R{6,11} + 7 R{6,14} + 7 R{6,17} + 7 R{6,25}
   + 7 R{6,31} + 7 R{6,32} + 7 R{6,33} + 7 R{6,34} + 7 R{6,35} + 7 R{6,42}
   + 7 R{6,44} <= 7
 R2_67: 3 R{0,18} + 3 R{0,22} + 3 R{0,25} + 3 R{0,30} + 3 R{0,37}
   + 3 R{0,41} + 3 R{0,43} + 3 R{0,45} + 3 R{4,21} + 3 R{4,23} + 3 R{6,13}
   + 3 R{6,21} + 3 R{6,23} + 3 R{6,29} + 3 R{6,37} + 3 R{6,39} + 3 R{6,43}
   <= 3
 R2_68: 6 R{3,30} + 6 R{4,1} + 6 R{4,5} + 6 R{4,13} + 6 R{4,14} + 6 R{4,24}
   + 6 R{4,26} + 6 R{4,35} <= 6
 R2_69: 7 R{0,0} + 7 R{0,1} + 7 R{0,2} + 7 R{0,7} + 7 R{0,8} + 7 R{0,10}
   + 7 R{0,11} + 7 R{0,12} + 7 R{0,13} + 7 R{0,20} + 7 R{0,21} + 7 R{0,22}
   + 7 R{0,27} + 7 R{0,32} + 7 R{0,34} + 7 R{0,35} + 7 R{4,1} + 7 R{4,2}
   + 7 R{4,3} + 7 R{4,4} + 7 R{4,5} + 7 R{4,6} + 7 R{4,7} + 7 R{4,9}
   + 7 R{4,10} + 7 R{4,13} + 7 R{4,14} + 7 R{4,15} + 7 R{4,16} + 7 R{4,17}
   + 7 R{4,19} + 7 R{4,20} + 7 R{4,25} + 7 R{4,27} + 7 R{4,30} + 7 R{4,31}
   + 7 R{4,32} <= 7
 R2_70: 11 R{1,1} + 11 R{1,2} + 11 R{1,3} + 11 R{1,5} + 11 R{1,11}
   + 11 R{1,13} + 11 R{1,16} <= 11
 R2_71: 7 R{0,25} + 7 R{1,12} + 7 R{3,1} + 7 R{3,5} + 7 R{3,8} + 7 R{3,17}
   + 7 R{3,35} <= 7
 R2_72: <= 0
 R2_73: 11 R{0,0} + 11 R{0,1} + 11 R{0,2} + 11 R{0,6} + 11 R{0,8}
   + 11 R{0,9} + 11 R{0,10} + 11 R{0,14} + 11 R{0,15} + 11 R{0,16}
   + 11 R{0,17} + 11 R{0,19} + 11 R{0,21} + 11 R{0,23} + 11 R{0,24}
   + 11 R{0,27} + 11 R{0,28} + 11 R{0,31} + 11 R{0,32} + 11 R{0,33}
   + 11 R{0,34} + 11 R{0,35} + 11 R{0,36} + 11 R{0,38} + 11 R{0,39}
   + 11 R{0,40} + 11 R{0,42} + 11 R{0,44} + 11 R{0,46} + 11 R{0,47} <= 11
 R2_74: 5 R{5,1} + 5 R{5,4} + 5 R{5,6} + 5 R{5,12} + 5 R{5,15} + 5 R{5,20}
   <= 5
 R2_75: 8 R{6,1} + 8 R{6,2} + 8 R{6,3} + 8 R{6,4} + 8 R{6,5} + 8 R{6,7}
   + 8 R{6,8} + 8 R{6,9} + 8 R{6,10} + 8 R{6,11} + 8 R{6,13} + 8 R{6,14}
   + 8 R{6,19} + 8 R{6,20} + 8 R{6,25} + 8 R{6,29} + 8 R{6,31} + 8 R{6,34}
   + 8 R{6,36} + 8 R{6,37} + 8 R{6,39} + 8 R{6,43} <= 8
 R2_76: 12 R{0,6} + 12 R{1,15} + 12 R{2,1} + 12 R{2,2} + 12 R{2,3}
   + 12 R{2,10} <= 12
 R2_77: 7 R{0,1} + 7 R{0,2} + 7 R{0,5} + 7 R{0,6} + 7 R{0,7} + 7 R{0,8}
   + 7 R{0,9} + 7 R{0,11} + 7 R{0,13} + 7 R{0,15} + 7 R{0,19} + 7 R{0,20}
   + 7 R{0,21} + 7 R{0,23} + 7 R{0,42} + 7 R{1,2} + 7 R{1,3} + 7 R{1,5}
   + 7 R{1,6} + 7 R{1,7} + 7 R{1,8} + 7 R{1,9} + 7 R{1,10} + 2 R{1,12}
   + 7 R{1,13} + 7 R{1,19} + 7 R{1,21} + 7 R{1,24} + 7 R{1,29} + 7 R{2,2}
   + 7 R{2,3} + 7 R{2,4} + 7 R{2,6} + 7 R{2,7} + 7 R{2,9} + 7 R{2,10}
   + 7 R{2,11} + 7 R{2,12} + 7 R{2,15} + 7 R{2,20} + 7 R{2,22} + 7 R{2,23}
   + 7 R{3,2} + 7 R{3,3} + 7 R{3,4} + 7 R{3,6} + 7 R{3,8} + 7 R{3,10}
   + 7 R{3,11} + 7 R{3,13} + 7 R{3,17} + 7 R{3,28} + 7 R{3,33} + 7 R{3,35}
   + 7 R{3,36} + 7 R{4,2} + 7 R{4,3} + 7 R{4,4} + 7 R{4,8} + 4 R{4,10}
   + 7 R{4,15} + 7 R{4,19} + 7 R{4,20} + 7 R{5,2} + 7 R{5,3} + 7 R{5,5}
   + 7 R{5,8} + 7 R{5,10} + 7 R{5,11} + 7 R{5,13} + 7 R{5,14} + 7 R{5,16}
   + 7 R{5,17} + 7 R{6,2} + 7 R{6,7} + 7 R{6,13} + 7 R{6,19} + 7 R{6,29}
   + 7 R{6,39} + 7 R{6,41} <= 7
Bounds
End
